c Reduced graph for p40 generated by Cyril Grelier
p edge 84 484
e 1 2
e 1 4
e 1 7
e 1 16
e 1 18
e 1 19
e 1 24
e 1 28
e 1 44
e 1 49
e 1 50
e 1 67
e 1 78
e 2 4
e 2 7
e 2 24
e 2 29
e 2 37
e 2 44
e 2 69
e 2 71
e 2 82
e 3 7
e 3 8
e 3 17
e 3 20
e 3 33
e 3 34
e 3 35
e 3 48
e 3 57
e 3 58
e 3 62
e 3 63
e 3 68
e 3 72
e 3 76
e 3 78
e 4 5
e 4 7
e 4 15
e 4 24
e 4 44
e 4 54
e 4 59
e 4 76
e 4 77
e 4 81
e 5 15
e 5 23
e 5 45
e 5 46
e 5 54
e 5 59
e 5 76
e 5 77
e 5 81
e 6 25
e 6 27
e 6 30
e 6 40
e 6 58
e 7 24
e 7 34
e 7 35
e 7 44
e 7 62
e 7 63
e 7 68
e 7 72
e 8 9
e 8 14
e 8 17
e 8 20
e 8 25
e 8 33
e 8 48
e 8 51
e 8 52
e 8 57
e 8 58
e 8 60
e 8 61
e 8 76
e 8 78
e 9 14
e 9 18
e 9 25
e 9 32
e 9 39
e 9 51
e 9 52
e 9 56
e 9 60
e 9 61
e 9 69
e 9 83
e 10 12
e 10 13
e 10 21
e 10 31
e 10 32
e 10 35
e 10 57
e 10 75
e 10 80
e 11 31
e 11 33
e 11 53
e 11 65
e 11 66
e 11 74
e 11 77
e 11 84
e 12 13
e 12 15
e 12 16
e 12 30
e 12 32
e 12 42
e 12 47
e 12 57
e 12 72
e 12 80
e 12 84
e 13 14
e 13 22
e 13 32
e 13 49
e 13 57
e 13 62
e 13 73
e 13 79
e 13 80
e 13 82
e 14 22
e 14 25
e 14 49
e 14 51
e 14 52
e 14 60
e 14 61
e 14 62
e 14 73
e 14 79
e 14 82
e 15 16
e 15 30
e 15 42
e 15 47
e 15 54
e 15 59
e 15 72
e 15 76
e 15 77
e 15 81
e 15 84
e 16 18
e 16 19
e 16 28
e 16 30
e 16 42
e 16 47
e 16 49
e 16 50
e 16 67
e 16 72
e 16 78
e 16 84
e 17 20
e 17 33
e 17 48
e 17 55
e 17 57
e 17 58
e 17 76
e 17 78
e 18 19
e 18 28
e 18 32
e 18 39
e 18 49
e 18 50
e 18 56
e 18 67
e 18 69
e 18 78
e 18 83
e 19 26
e 19 28
e 19 37
e 19 49
e 19 50
e 19 52
e 19 67
e 19 68
e 19 70
e 19 78
e 20 33
e 20 38
e 20 44
e 20 45
e 20 48
e 20 56
e 20 57
e 20 58
e 20 76
e 20 78
e 20 79
e 21 31
e 21 35
e 21 36
e 21 75
e 22 23
e 22 39
e 22 42
e 22 43
e 22 49
e 22 62
e 22 70
e 22 73
e 22 79
e 22 82
e 23 39
e 23 42
e 23 43
e 23 45
e 23 46
e 23 70
e 24 26
e 24 27
e 24 44
e 24 48
e 24 64
e 24 73
e 24 74
e 24 75
e 24 83
e 25 27
e 25 40
e 25 51
e 25 52
e 25 60
e 25 61
e 26 27
e 26 37
e 26 48
e 26 52
e 26 64
e 26 68
e 26 70
e 26 73
e 26 74
e 26 75
e 26 83
e 27 40
e 27 48
e 27 64
e 27 73
e 27 74
e 27 75
e 27 83
e 28 49
e 28 50
e 28 59
e 28 61
e 28 64
e 28 66
e 28 67
e 28 78
e 29 37
e 29 38
e 29 53
e 29 55
e 29 60
e 29 67
e 29 69
e 29 71
e 29 80
e 29 81
e 29 82
e 30 42
e 30 47
e 30 58
e 30 72
e 30 84
e 31 33
e 31 35
e 31 53
e 31 65
e 31 66
e 31 75
e 31 84
e 32 39
e 32 56
e 32 57
e 32 69
e 32 80
e 32 83
e 33 48
e 33 53
e 33 57
e 33 58
e 33 65
e 33 66
e 33 76
e 33 78
e 33 84
e 34 35
e 34 36
e 34 43
e 34 50
e 34 51
e 34 62
e 34 63
e 34 65
e 34 68
e 34 72
e 35 62
e 35 63
e 35 68
e 35 72
e 35 75
e 36 43
e 36 50
e 36 51
e 36 65
e 37 52
e 37 68
e 37 69
e 37 70
e 37 71
e 37 82
e 38 44
e 38 45
e 38 53
e 38 55
e 38 56
e 38 60
e 38 67
e 38 79
e 38 80
e 38 81
e 39 42
e 39 43
e 39 56
e 39 69
e 39 70
e 39 83
e 40 41
e 40 46
e 40 47
e 41 46
e 41 47
e 41 54
e 41 63
e 41 71
e 42 43
e 42 47
e 42 70
e 42 72
e 42 84
e 43 50
e 43 51
e 43 65
e 43 70
e 44 45
e 44 56
e 44 79
e 45 46
e 45 56
e 45 79
e 46 47
e 47 72
e 47 84
e 48 57
e 48 58
e 48 64
e 48 73
e 48 74
e 48 75
e 48 76
e 48 78
e 48 83
e 49 50
e 49 62
e 49 67
e 49 73
e 49 78
e 49 79
e 49 82
e 50 51
e 50 65
e 50 67
e 50 78
e 51 52
e 51 60
e 51 61
e 51 65
e 52 60
e 52 61
e 52 68
e 52 70
e 53 55
e 53 60
e 53 65
e 53 66
e 53 67
e 53 80
e 53 81
e 53 84
e 54 59
e 54 63
e 54 71
e 54 76
e 54 77
e 54 81
e 55 60
e 55 67
e 55 80
e 55 81
e 56 69
e 56 79
e 56 83
e 57 58
e 57 76
e 57 78
e 57 80
e 58 76
e 58 78
e 59 61
e 59 64
e 59 66
e 59 76
e 59 77
e 59 81
e 60 61
e 60 67
e 60 80
e 60 81
e 61 64
e 61 66
e 62 63
e 62 68
e 62 72
e 62 73
e 62 79
e 62 82
e 63 68
e 63 71
e 63 72
e 64 66
e 64 73
e 64 74
e 64 75
e 64 83
e 65 66
e 65 84
e 66 84
e 67 78
e 67 80
e 67 81
e 68 70
e 68 72
e 69 71
e 69 82
e 69 83
e 71 82
e 72 84
e 73 74
e 73 75
e 73 79
e 73 82
e 73 83
e 74 75
e 74 77
e 74 83
e 75 83
e 76 77
e 76 78
e 76 81
e 77 81
e 79 82
e 80 81
